CMD:
./solvers/bin/cadical --plain --no-reduce -t 1600 ./data/cnfs//6s403rb1342/6s403rb1342.33.cnf

c --- [ banner ] -------------------------------------------------------------
c 
c CaDiCaL SAT Solver
c Copyright (c) 2016-2024
c A. Biere, M. Fleury, N. Froleyks, K. Fazekas, F. Pollitt, T. Faller
c JKU Linz, University of Freiburg, TU Wien
c 
c Version 2.1.3 5296d3d2a9bf48c154ab2acb5e44625776d821bf
c g++ (Gentoo 12.3.1_p20230526 p2) 12.3.1 20230526 -Wall -Wextra -O3 -DNDEBUG
c Sat Aug 9 07:26:21 PDT 2025 Linux cedar2.int.cedar.computecanada.ca 5.14.0-362.24.2.el9_3.x86_64 x86_64
c 
c --- [ limit ] --------------------------------------------------------------
c 
c setting time limit to 1600 seconds real time (due to '-t 1600')
c 
c --- [ parsing input ] ------------------------------------------------------
c 
c reading DIMACS file from './data/cnfs//6s403rb1342/6s403rb1342.33.cnf'
c opening file to read './data/cnfs//6s403rb1342/6s403rb1342.33.cnf'
c found 'p cnf 1533764 4365152' header
c parsed 4365152 clauses in 0.65 seconds process time
c 
c --- [ options ] ------------------------------------------------------------
c 
c   --compact=false                (different from default 'true')
c   --decompose=false              (different from default 'true')
c   --deduplicate=false            (different from default 'true')
c   --elim=false                   (different from default 'true')
c   --probe=false                  (different from default 'true')
c   --reduce=false                 (different from default 'true')
c   --subsume=false                (different from default 'true')
c   --ternary=false                (different from default 'true')
c   --transred=false               (different from default 'true')
c   --vivify=false                 (different from default 'true')
c 
c --- [ solving ] ------------------------------------------------------------
c 
c time measured in process time since initialization
c 
c  seconds   reductions  redundant   irredundant
c          MB    restarts       trail        variables
c           level   conflicts       glue           remaining
c 
c *  0.66 588  0 0   0    0    0  0% 0 3361471 968906 63%
c {  0.67 594  0 0   0    0    0  0% 0 3361471 968906 63%
c i  0.68 594 1473 0   0   15   12 34% 1 3361471 968905 63%
c i  0.70 594 1383 0   1   27   23 35% 2 3361471 968904 63%
c i  0.72 594 1300 0   3   56   50 35% 3 3361471 968903 63%
c i  0.84 594 965 0  12  164  140 36% 3 3361471 968902 63%
c i  0.88 594 1047 0  13  201  171 37% 3 3361471 968890 63%
c i  0.89 594 1019 0  13  207  174 37% 3 3361471 968888 63%
c i  0.89 594 998 0  13  211  176 37% 3 3361471 968790 63%
c }  0.89 594 993 0  13  213  176 36% 3 3361471 968322 63%
c 0  0.89 594 993 0  13  213  176 36% 3 3361471 968322 63%
c 
c --- [ result ] -------------------------------------------------------------
c 
s UNSATISFIABLE
c 
c --- [ run-time profiling ] -------------------------------------------------
c 
c process time taken by individual solving procedures
c (percentage relative to process time for solving)
c 
c         0.65  283.82% parse
c         0.23   99.95% search
c         0.22   95.03% unstable
c         0.01    4.91% lucky
c         0.00    0.00% simplify
c   =================================
c         0.23   26.04% solve
c 
c last line shows process time for solving
c (percentage relative to total process time)
c 
c --- [ statistics ] ---------------------------------------------------------
c 
c chronological:               143        67.14 %  of conflicts
c conflicts:                   213       923.32    per second
c decisions:                 23822    103264.12    per second
c fixed:                    499588        32.57 %  of all variables
c learned:                     190        89.20 %  per conflict
c learned_lits:               1222       100.00 %  learned literals
c minimized:                     0         0.00 %  learned literals
c shrunken:                    148        12.11 %  learned literals
c minishrunken:                 36         2.95 %  learned literals
c otfs:                          1         0.47 %  of conflict
c propagations:            2096018         9.09 M  per second
c restarts:                     13        16.38    interval
c subsumed:                      5         0.00 %  of all clauses
c strengthened:                  1         0.00 %  of all clauses
c 
c seconds are measured in process time for solving
c 
c --- [ resources ] ----------------------------------------------------------
c 
c total process time since initialization:         0.89    seconds
c total real time since initialization:            0.90    seconds
c maximum resident set size of process:          591.80    MB
c 
c --- [ shutting down ] ------------------------------------------------------
c 
c exit 20
